NAME          DCAP_2_4_3_500_SS168
ROWS
 N  OBJ
 L  CON1
 L  CON2
 L  CON3
 L  CON4
 L  CON5
 L  CON6
 L  CON7
 L  CON8
 L  CON9
 L  CON10
 L  CON11
 L  CON12
 E  CON13
 E  CON14
 E  CON15
 E  CON16
 E  CON17
 E  CON18
 E  CON19
 E  CON20
 E  CON21
 E  CON22
 E  CON23
 E  CON24
COLUMNS
    x[1,1]    OBJ       6.180167      CON1      1.000000    
    x[1,1]    CON7      -1.000000     CON8      -1.000000   
    x[1,1]    CON9      -1.000000   
    x[1,2]    OBJ       6.563535      CON2      1.000000    
    x[1,2]    CON8      -1.000000     CON9      -1.000000   
    x[1,3]    OBJ       7.443064      CON3      1.000000    
    x[1,3]    CON9      -1.000000   
    x[2,1]    OBJ       6.732585      CON4      1.000000    
    x[2,1]    CON10     -1.000000     CON11     -1.000000   
    x[2,1]    CON12     -1.000000   
    x[2,2]    OBJ       5.039546      CON5      1.000000    
    x[2,2]    CON11     -1.000000     CON12     -1.000000   
    x[2,3]    OBJ       6.054841      CON6      1.000000    
    x[2,3]    CON12     -1.000000   
    MARKER    'MARKER'                'INTORG'
    u[1,1]    OBJ       48.076654     CON1      -1.000000   
    u[1,2]    OBJ       20.066487     CON2      -1.000000   
    u[1,3]    OBJ       32.230043     CON3      -1.000000   
    u[2,1]    OBJ       49.996186     CON4      -1.000000   
    u[2,2]    OBJ       49.466655     CON5      -1.000000   
    u[2,3]    OBJ       27.484319     CON6      -1.000000   
    y[1,1,1]  OBJ       6.805726      CON7      0.813618    
    y[1,1,1]  CON13     1.000000    
    y[1,1,2]  OBJ       8.217806      CON8      0.959380    
    y[1,1,2]  CON14     1.000000    
    y[1,1,3]  OBJ       7.986813      CON9      0.754452    
    y[1,1,3]  CON15     1.000000    
    y[1,2,1]  OBJ       8.955384      CON7      0.696952    
    y[1,2,1]  CON16     1.000000    
    y[1,2,2]  OBJ       7.958517      CON8      1.015717    
    y[1,2,2]  CON17     1.000000    
    y[1,2,3]  OBJ       5.032547      CON9      0.586903    
    y[1,2,3]  CON18     1.000000    
    y[1,3,1]  OBJ       6.564477      CON7      1.054142    
    y[1,3,1]  CON19     1.000000    
    y[1,3,2]  OBJ       9.986754      CON8      0.643841    
    y[1,3,2]  CON20     1.000000    
    y[1,3,3]  OBJ       7.648004      CON9      0.641867    
    y[1,3,3]  CON21     1.000000    
    y[1,4,1]  OBJ       7.901132      CON7      1.027158    
    y[1,4,1]  CON22     1.000000    
    y[1,4,2]  OBJ       7.905389      CON8      1.121541    
    y[1,4,2]  CON23     1.000000    
    y[1,4,3]  OBJ       9.600461      CON9      0.866750    
    y[1,4,3]  CON24     1.000000    
    y[2,1,1]  OBJ       5.367430      CON10     0.813618    
    y[2,1,1]  CON13     1.000000    
    y[2,1,2]  OBJ       6.893377      CON11     0.959380    
    y[2,1,2]  CON14     1.000000    
    y[2,1,3]  OBJ       8.076561      CON12     0.754452    
    y[2,1,3]  CON15     1.000000    
    y[2,2,1]  OBJ       5.198858      CON10     0.696952    
    y[2,2,1]  CON16     1.000000    
    y[2,2,2]  OBJ       7.880590      CON11     1.015717    
    y[2,2,2]  CON17     1.000000    
    y[2,2,3]  OBJ       8.306075      CON12     0.586903    
    y[2,2,3]  CON18     1.000000    
    y[2,3,1]  OBJ       5.401827      CON10     1.054142    
    y[2,3,1]  CON19     1.000000    
    y[2,3,2]  OBJ       5.685553      CON11     0.643841    
    y[2,3,2]  CON20     1.000000    
    y[2,3,3]  OBJ       6.448940      CON12     0.641867    
    y[2,3,3]  CON21     1.000000    
    y[2,4,1]  OBJ       5.711526      CON10     1.027158    
    y[2,4,1]  CON22     1.000000    
    y[2,4,2]  OBJ       6.197357      CON11     1.121541    
    y[2,4,2]  CON23     1.000000    
    y[2,4,3]  OBJ       8.149370      CON12     0.866750    
    y[2,4,3]  CON24     1.000000    
    z[1,1]    OBJ       598.300111    CON13     1.000000    
    z[1,2]    OBJ       703.913492    CON14     1.000000    
    z[1,3]    OBJ       985.592458    CON15     1.000000    
    z[2,1]    OBJ       568.458012    CON16     1.000000    
    z[2,2]    OBJ       661.934470    CON17     1.000000    
    z[2,3]    OBJ       810.234421    CON18     1.000000    
    z[3,1]    OBJ       627.631012    CON19     1.000000    
    z[3,2]    OBJ       894.859265    CON20     1.000000    
    z[3,3]    OBJ       638.180358    CON21     1.000000    
    z[4,1]    OBJ       868.223172    CON22     1.000000    
    z[4,2]    OBJ       991.915565    CON23     1.000000    
    z[4,3]    OBJ       695.724233    CON24     1.000000    
    MARKER    'MARKER'                 'INTEND'
RHS
    RHS       CON1      -0.000000     CON2      -0.000000   
    RHS       CON3      -0.000000     CON4      -0.000000   
    RHS       CON5      -0.000000     CON6      -0.000000   
    RHS       CON7      -0.000000     CON8      -0.000000   
    RHS       CON9      -0.000000     CON10     -0.000000   
    RHS       CON11     -0.000000     CON12     -0.000000   
    RHS       CON13     1.000000      CON14     1.000000    
    RHS       CON15     1.000000      CON16     1.000000    
    RHS       CON17     1.000000      CON18     1.000000    
    RHS       CON19     1.000000      CON20     1.000000    
    RHS       CON21     1.000000      CON22     1.000000    
    RHS       CON23     1.000000      CON24     1.000000    
BOUNDS
 BV BOUND     u[1,1]  
 BV BOUND     u[1,2]  
 BV BOUND     u[1,3]  
 BV BOUND     u[2,1]  
 BV BOUND     u[2,2]  
 BV BOUND     u[2,3]  
 BV BOUND     y[1,1,1]
 BV BOUND     y[1,1,2]
 BV BOUND     y[1,1,3]
 BV BOUND     y[1,2,1]
 BV BOUND     y[1,2,2]
 BV BOUND     y[1,2,3]
 BV BOUND     y[1,3,1]
 BV BOUND     y[1,3,2]
 BV BOUND     y[1,3,3]
 BV BOUND     y[1,4,1]
 BV BOUND     y[1,4,2]
 BV BOUND     y[1,4,3]
 BV BOUND     y[2,1,1]
 BV BOUND     y[2,1,2]
 BV BOUND     y[2,1,3]
 BV BOUND     y[2,2,1]
 BV BOUND     y[2,2,2]
 BV BOUND     y[2,2,3]
 BV BOUND     y[2,3,1]
 BV BOUND     y[2,3,2]
 BV BOUND     y[2,3,3]
 BV BOUND     y[2,4,1]
 BV BOUND     y[2,4,2]
 BV BOUND     y[2,4,3]
 BV BOUND     z[1,1]  
 BV BOUND     z[1,2]  
 BV BOUND     z[1,3]  
 BV BOUND     z[2,1]  
 BV BOUND     z[2,2]  
 BV BOUND     z[2,3]  
 BV BOUND     z[3,1]  
 BV BOUND     z[3,2]  
 BV BOUND     z[3,3]  
 BV BOUND     z[4,1]  
 BV BOUND     z[4,2]  
 BV BOUND     z[4,3]  
ENDATA
